(declare-fun x_ack!100 () (_ BitVec 64))
(declare-fun nu1_ack!98 () (_ BitVec 64))
(declare-fun nu2_ack!99 () (_ BitVec 64))
(assert (not (fp.lt ((_ to_fp 11 53) x_ack!100) ((_ to_fp 11 53) #x0000000000000000))))
(assert (not (fp.gt ((_ to_fp 11 53) x_ack!100) ((_ to_fp 11 53) #x3ff0000000000000))))
(assert (not (fp.lt ((_ to_fp 11 53) nu1_ack!98) ((_ to_fp 11 53) #x3ff0000000000000))))
(assert (not (fp.lt ((_ to_fp 11 53) nu2_ack!99) ((_ to_fp 11 53) #x3ff0000000000000))))
(assert (fp.lt ((_ to_fp 11 53) x_ack!100) ((_ to_fp 11 53) #x3fe0000000000000)))
(assert (not (fp.lt ((_ to_fp 11 53) x_ack!100) ((_ to_fp 11 53) #x0000000000000000))))
(assert (not (fp.gt ((_ to_fp 11 53) x_ack!100) ((_ to_fp 11 53) #x3ff0000000000000))))
(assert (not (fp.lt (fp.div roundNearestTiesToEven
                    ((_ to_fp 11 53) nu1_ack!98)
                    ((_ to_fp 11 53) #x4000000000000000))
            ((_ to_fp 11 53) #x0000000000000000))))
(assert (not (fp.lt (fp.div roundNearestTiesToEven
                    ((_ to_fp 11 53) nu2_ack!99)
                    ((_ to_fp 11 53) #x4000000000000000))
            ((_ to_fp 11 53) #x0000000000000000))))
(assert (not (fp.eq ((_ to_fp 11 53) x_ack!100) ((_ to_fp 11 53) #x0000000000000000))))
(assert (not (fp.eq ((_ to_fp 11 53) x_ack!100) ((_ to_fp 11 53) #x3ff0000000000000))))
(assert (not (fp.gt ((_ to_fp 11 53) x_ack!100) ((_ to_fp 11 53) #x3fe0000000000000))))

(check-sat)
(exit)
